2
4
20
1 1.3 1.55 1.75 2.1
11 43 22 32 9 47 6 22 11 13 17 19 45 23 36 48 46 43 38 21 46 37 38 8 43 6 40 21 22 14 34 47 17 26 49 33 21 49 14 19 31 41 5 33 26 7 8 29 5 21 48 38 6 32 10 49 37 22 36 37 8 20 10 19 28 42 8 35 11 36 47 30 27 29 33 30 20 8 28 32 